c Sudoku solution
p cnf 729 0
152 0
176 0
231 0
346 0
355 0
389 0
429 0
447 0
471 0
483 0
545 0
559 0
564 0
628 0
653 0
661 0
642 0
141 0
391 0
675 0
699 0
684 0
774 0
788 0
824 0
835 0
415 0
434 0
492 0
314 0
194 0
912 0
762 0
965 0
795 0
936 0
818 0
756 0
637 0
616 0
226 0
125 0
187 0
285 0
272 0
458 0
466 0
948 0
954 0
851 0
867 0
981 0
979 0
997 0
849 0
743 0
739 0
923 0
244 0
257 0
327 0
332 0
138 0
717 0
721 0
511 0
522 0
533 0
873 0
882 0
896 0
378 0
293 0
219 0
113 0
169 0
268 0
363 0
577 0
586 0
598 0
